(set-info :smt-lib-version 2.6)
(set-logic QF_UFLRA)
(set-info :source |
MathSat group

|)
(set-info :category "random")
(set-info :status unsat)
(declare-fun x0 () Real)
(declare-fun x1 () Real)
(declare-fun x2 () Real)
(declare-fun x3 () Real)
(declare-fun x4 () Real)
(declare-fun x5 () Real)
(declare-fun x6 () Real)
(declare-fun x7 () Real)
(declare-fun x8 () Real)
(declare-fun x9 () Real)
(declare-fun x10 () Real)
(declare-fun x11 () Real)
(declare-fun x12 () Real)
(declare-fun x13 () Real)
(declare-fun x14 () Real)
(declare-fun x15 () Real)
(declare-fun x16 () Real)
(declare-fun x17 () Real)
(declare-fun x18 () Real)
(declare-fun x19 () Real)
(declare-fun x20 () Real)
(declare-fun x21 () Real)
(declare-fun x22 () Real)
(declare-fun x23 () Real)
(declare-fun x24 () Real)
(declare-fun x25 () Real)
(declare-fun x26 () Real)
(declare-fun x27 () Real)
(declare-fun x28 () Real)
(declare-fun x29 () Real)
(declare-fun f0_1 (Real) Real)
(declare-fun f0_2 (Real Real) Real)
(declare-fun f0_3 (Real Real Real) Real)
(declare-fun f0_4 (Real Real Real Real) Real)
(declare-fun P0 () Bool)
(declare-fun P1 () Bool)
(declare-fun P2 () Bool)
(declare-fun P3 () Bool)
(declare-fun P4 () Bool)
(declare-fun P5 () Bool)
(declare-fun P6 () Bool)
(declare-fun P7 () Bool)
(declare-fun P8 () Bool)
(declare-fun P9 () Bool)
(declare-fun P10 () Bool)
(declare-fun P11 () Bool)
(declare-fun P12 () Bool)
(declare-fun P13 () Bool)
(declare-fun P14 () Bool)
(declare-fun P15 () Bool)
(declare-fun P16 () Bool)
(declare-fun P17 () Bool)
(declare-fun P18 () Bool)
(declare-fun P19 () Bool)
(declare-fun P20 () Bool)
(declare-fun P21 () Bool)
(declare-fun P22 () Bool)
(declare-fun P23 () Bool)
(declare-fun P24 () Bool)
(declare-fun P25 () Bool)
(declare-fun P26 () Bool)
(declare-fun P27 () Bool)
(declare-fun P28 () Bool)
(declare-fun P29 () Bool)
(assert (let ((?v_8 (* 14 x21))) (let ((?v_18 (< (+ (- ?v_8 (* 20 x7)) (* 20 x6)) 28)) (?v_120 (< (- (+ (* 23 x23) (* 4 x8)) (* 10 x28)) 1)) (?v_88 (< (- (+ (* 25 x18) (* 12 x2)) (* 2 x12)) 16)) (?v_92 (* 4 x18)) (?v_55 (* 28 x3)) (?v_9 (< (- (+ (* 41 x19) (* 28 x17)) ?v_8) 17)) (?v_91 (* 2 x7)) (?v_54 (f0_1 x1))) (let ((?v_96 (distinct ?v_54 (f0_2 x2 x10))) (?v_82 (= (f0_1 x7) x9)) (?v_46 (= (f0_1 x20) x15)) (?v_144 (= (f0_1 x2) x13)) (?v_20 (f0_1 x14))) (let ((?v_50 (= ?v_20 (f0_2 x7 x26))) (?v_42 (= (f0_1 x15) (f0_2 x1 x22))) (?v_44 (f0_2 x2 x12))) (let ((?v_113 (= ?v_44 x2)) (?v_138 (= (f0_1 x17) x15)) (?v_30 (distinct (f0_2 x21 x3) (f0_2 x22 x21))) (?v_147 (= x19 x20)) (?v_101 (= (f0_2 x14 x20) x17)) (?v_56 (distinct (f0_2 x6 x21) (f0_1 x16))) (?v_69 (distinct x13 (f0_2 x13 x28))) (?v_128 (= (f0_2 x27 x2) (f0_2 x3 x29))) (?v_1 (= (f0_2 x10 x19) (f0_2 x21 x5))) (?v_110 (distinct x14 (f0_1 x18))) (?v_5 (distinct (f0_2 x5 x20) (f0_2 x16 x1))) (?v_45 (= x20 x25)) (?v_137 (= (f0_2 x3 x10) (f0_1 x6))) (?v_79 (= (f0_1 x26) x14)) (?v_11 (= (f0_1 x3) x26)) (?v_81 (distinct (f0_2 x7 x12) x9)) (?v_6 (f0_1 x9))) (let ((?v_7 (= x25 ?v_6)) (?v_33 (distinct ?v_6 (f0_2 x28 x27))) (?v_129 (= (f0_2 x23 x8) x17)) (?v_66 (= x5 ?v_54)) (?v_22 (= (f0_2 x27 x10) ?v_20)) (?v_107 (= (f0_2 x25 x23) x17)) (?v_100 (= (f0_2 x14 x27) (f0_2 x20 x6))) (?v_117 (= x26 ?v_44)) (?v_31 (or ?v_1 P14)) (?v_12 (not P24)) (?v_124 (not P19)) (?v_67 (not P25)) (?v_35 (not ?v_42))) (let ((?v_29 (not ?v_129)) (?v_156 (or ?v_88 P16)) (?v_15 (not P27)) (?v_139 (not ?v_1)) (?v_2 (not ?v_66)) (?v_72 (not P16)) (?v_135 (not P13)) (?v_94 (not P18)) (?v_14 (not P15)) (?v_106 (not ?v_46)) (?v_49 (not ?v_5)) (?v_58 (not ?v_107)) (?v_19 (not ?v_18)) (?v_85 (not P20)) (?v_28 (not ?v_138)) (?v_39 (not ?v_11)) (?v_17 (not ?v_120)) (?v_86 (not ?v_147)) (?v_16 (not ?v_82)) (?v_111 (not P5)) (?v_24 (not P29)) (?v_115 (not P11)) (?v_26 (not ?v_81)) (?v_68 (not ?v_50)) (?v_38 (not ?v_22)) (?v_70 (not ?v_137)) (?v_93 (not P3)) (?v_97 (not ?v_33)) (?v_136 (not P23)) (?v_125 (not ?v_45)) (?v_83 (not P22)) (?v_84 (not ?v_110)) (?v_71 (not P8)) (?v_65 (not P10)) (?v_63 (not ?v_9)) (?v_48 (not ?v_117)) (?v_64 (not ?v_30)) (?v_62 (not ?v_96)) (?v_131 (not ?v_56)) (?v_89 (not P6)) (?v_122 (not ?v_79)) (?v_130 (not P14)) (?v_87 (not ?v_7)) (?v_80 (not ?v_69)) (?v_105 (not P28)) (?v_78 (not ?v_144)) (?v_126 (not P0)) (?v_99 (not ?v_88)) (?v_102 (not P12)) (?v_123 (not P4)) (?v_132 (not ?v_101)) (?v_157 (not P26)) (?v_127 (not P7)) (?v_158 (not ?v_128)) (?v_151 (not P1)) (?v_149 (not P17)) (?v_150 (not ?v_113)) (?v_143 (not P9)) (?v_152 (not ?v_100)) (?v_148 (not P2)) (?v_75 (<= (+ (* 41 x7) (* 41 x20) (* 6 x25)) 22))) (let ((?v_32 (not ?v_75)) (?v_52 (<= (+ (* 38 x18) (* 9 x1) (* 35 x3)) 32))) (let ((?v_25 (not ?v_52)) (?v_53 (<= (+ (* 3 x9) (* 11 x16)) 40)) (?v_59 (= (- (- 0 (* 41 x23)) 0) 10))) (let ((?v_27 (not ?v_59)) (?v_153 (not ?v_53)) (?v_13 (< (+ (* 3 x0) (* 19 x1) (* 41 x4)) (- 26))) (?v_4 (< (- (+ (* 15 x8) (* 27 x6)) 0) (- 23))) (?v_90 (* (- 33) x12))) (let ((?v_0 (<= (+ ?v_90 (* 5 x9) (* 10 x6)) (- 14)))) (let ((?v_34 (not ?v_0)) (?v_3 (= (+ (- (* (- 20) x9) (* 21 x5)) (* 25 x16)) (- 31))) (?v_73 (distinct (- (+ (* 10 x25) (* 16 x5)) (* 13 x9)) (- 4))) (?v_10 (distinct (- (+ (* (- 37) x28) (* 36 x4)) (* 18 x6)) 11)) (?v_40 (<= (+ (- (* 37 x17) (* 33 x6)) (* 28 x19)) (- 20))) (?v_23 (< (+ (- (* (- 30) x28) ?v_55) (* 16 x26)) 3)) (?v_36 (<= (+ (- (* (- 32) x4) (* 28 x26)) (* 30 x27)) 29)) (?v_21 (= (+ (* 14 x13) (* 23 x7) (* 7 x6)) (- 23))) (?v_37 (not ?v_13))) (let ((?v_145 (not ?v_21)) (?v_41 (= (- (- (* (- 16) x25) (* 13 x1)) (* 24 x25)) (- 15))) (?v_109 (not ?v_23)) (?v_43 (distinct (- (- (* 22 x25) (* 25 x17)) (* 35 x11)) (- 5)))) (let ((?v_95 (not ?v_43)) (?v_51 (< (- (+ (* (- 37) x12) (* 33 x25)) (* 26 x22)) 40)) (?v_133 (not ?v_40)) (?v_140 (not ?v_41)) (?v_57 (< (- (- (* 4 x29) (* 28 x23)) (* 22 x21)) (- 18)))) (let ((?v_47 (not ?v_57)) (?v_108 (< (+ (* (- 3) x7) (* 29 x1) (* 24 x11)) (- 37)))) (let ((?v_98 (not ?v_108)) (?v_112 (not ?v_51)) (?v_76 (= (+ (- (* (- 28) x4) ?v_91) ?v_55) 8))) (let ((?v_119 (not ?v_76)) (?v_61 (< (- (+ (* (- 9) x2) (* 11 x25)) (* 30 x10)) 33)) (?v_134 (= (+ (* (- 4) x9) (* 3 x11) (* 36 x17)) 37))) (let ((?v_60 (not ?v_134)) (?v_114 (not ?v_61)) (?v_74 (<= (+ (- (* (- 11) x19) (* 27 x7)) ?v_92) 37)) (?v_77 (not ?v_73))) (let ((?v_154 (not ?v_74)) (?v_103 (not ?v_3)) (?v_142 (not ?v_4)) (?v_104 (= (+ (- ?v_90 (* 5 x5)) ?v_91) (- 12))) (?v_121 (= (- (+ (* 3 x13) (* 21 x1)) ?v_92) (- 39))) (?v_141 (not ?v_36)) (?v_118 (not ?v_10)) (?v_155 (<= (+ (- (* (- 5) x12) x7) (* 25 x3)) 28))) (let ((?v_116 (not ?v_155)) (?v_146 (not ?v_121)) (?v_159 (not ?v_104))) (and (and (and (and (and (and (and (and (and (and (and (and (and (and (and (and (and (and (and (and (and (and (and (and (and (and (and (and (and (and (and (and (and (and (and (and (and (and (and (and (and (and (and (and (and (and (and (and (and (and (and (and (and (and (and (and (and (and (and (and (and (and (and (and (and (and (and (and (and (and (and (and (and (and (and (and (and (and (and (and (and (and (and (and (and (and (and (and (and (and (and (and (and (and (and (and (and (and (and (and (and (and (and (and (and (and (and (and (and (and (and (and (and (and (and (and (and (and (and (and (and (and (and (and (and (and (and (and (and (and (and (and (and (and (and (and (and (and (and (and (and (and (and (and (and (and (and (and (and (and (and (and (and (and (and (and (and (and (and (and (and (and (and (and (and (and (and (and (and (and (and (and (and (and (and (and (and (and (and (and (and (and (and (and (and (and (and (and (and (and (and (and (and (and (and (and (and (and (and (and (and (and (and (and (and (and (and (and (and (and (and (and (and (and (and (and (and (and (and (and (and (and (and (and (and (and (and (and (and (and (and (and (and (and (and (and (and (and (and (and (and (and (and (and (and (and (and (and (and (and (and (and (and (and (and (and (and (and (and (and (and (and (and (and (and (and (and (and (and (and (and (and (and (and (and (and (and (and (and (and (and (and (and (and (and (and (and (and (and (and (and (and (and (and (and (and (and (and (and (and (and (and (and (and (and (and (and (and (and (and (and (and (and (and (and (and (and (and (and (and (and (and (and (and (and (and (and (and (and (and (and (and (and (and (and (and (and (and (and (and (and (and (and (and (and (and (and (and (and (and (and (and (and (and (and (and (and (and (and (and (and (and (and (and (and (and (and (and (and (and (and (and (and (and (and (and (and (and (and (and (and (and (and (and (and (and (and (and (and (and (and (and (and (and (and (and (and (and (and (and (and (and (and (and (and (and (and (and (and (and (and (and (and (and (and (and (and (and (and (and (and (and (and (and (and (and (and (and (and (and (and (and (and (and (and (and (and (and (and (and (and (and (and (and (and (and (and (and (and (or (or P8 ?v_11) ?v_32) (or ?v_31 ?v_13)) (or (or ?v_12 ?v_124) ?v_4)) (or (or ?v_67 ?v_25) ?v_35)) (or (or ?v_34 ?v_53) ?v_29)) (or ?v_156 P7)) (or (or ?v_15 P25) ?v_3)) (or (or ?v_0 ?v_73) ?v_139)) (or (or ?v_5 ?v_2) ?v_72)) (or (or ?v_33 ?v_2) P21)) (or (or ?v_135 ?v_94) ?v_14)) (or (or ?v_3 ?v_10) ?v_106)) (or (or ?v_1 ?v_40) P27)) (or (or ?v_23 ?v_4) ?v_49)) (or (or ?v_9 ?v_0) ?v_7)) (or (or ?v_7 ?v_58) ?v_19)) (or (or ?v_36 P9) ?v_9)) (or (or ?v_22 ?v_10) ?v_85)) (or (or P10 ?v_21) ?v_28)) (or (or ?v_39 P19) ?v_17)) (or (or ?v_86 ?v_12) ?v_16)) (or (or ?v_37 P15) ?v_100)) (or (or P13 ?v_14) ?v_15)) (or (or ?v_30 ?v_69) ?v_16)) (or (or ?v_17 ?v_111) ?v_24)) (or (or ?v_115 ?v_26) P4)) (or (or ?v_18 ?v_19) ?v_68)) (or (or P16 ?v_7) ?v_17)) (or (or P22 ?v_145) ?v_1)) (or (or ?v_38 P26) ?v_23)) (or (or ?v_12 ?v_24) ?v_25)) (or (or ?v_70 ?v_27) ?v_26)) (or (or ?v_41 ?v_27) ?v_28)) (or (or ?v_15 ?v_29) ?v_12)) (or (or ?v_26 P29) ?v_30)) (or ?v_31 ?v_32)) (or (or ?v_93 ?v_97) P17)) (or (or P22 ?v_29) ?v_34)) (or (or ?v_136 (not P21)) ?v_35)) (or (or ?v_109 ?v_125) ?v_36)) (or (or ?v_24 P27) ?v_5)) (or (or ?v_95 ?v_51) ?v_56)) (or (or ?v_83 ?v_84) ?v_37)) (or (or ?v_38 ?v_15) ?v_113)) (or (or ?v_1 ?v_71) ?v_65)) (or (or ?v_39 ?v_33) ?v_133)) (or (or ?v_140 P2) ?v_42)) (or (or ?v_43 ?v_0) ?v_35)) (or (or ?v_63 ?v_47) ?v_16)) (or (or ?v_48 ?v_64) ?v_45)) (or (or ?v_46 ?v_47) ?v_42)) (or (or ?v_48 ?v_98) ?v_49)) (or (or P21 ?v_50) ?v_112)) (or (or ?v_33 ?v_5) ?v_26)) (or (or ?v_52 ?v_53) ?v_30)) (or (or ?v_62 ?v_42) ?v_34)) (or (or ?v_119 ?v_131) ?v_57)) (or (or ?v_58 ?v_61) P27)) (or (or ?v_60 ?v_30) ?v_59)) (or (or P14 P8) ?v_89)) (or (or ?v_122 ?v_60) ?v_11)) (or (or ?v_114 ?v_62) ?v_18)) (or (or ?v_2 ?v_53) P3)) (or (or ?v_63 ?v_42) ?v_39)) (or (or P15 ?v_43) ?v_130)) (or (or ?v_11 ?v_64) ?v_65)) (or (or ?v_87 ?v_32) P10)) (or (or ?v_66 ?v_67) P15)) (or (or ?v_36 ?v_3) ?v_26)) (or (or ?v_68 ?v_80) ?v_105)) (or (or ?v_70 P10) ?v_2)) (or (or ?v_71 ?v_21) P3)) (or (or ?v_7 P4) ?v_65)) (or (or ?v_40 ?v_66) ?v_72)) (or (or ?v_153 ?v_53) ?v_35)) (or (or ?v_0 ?v_74) P22)) (or (or ?v_73 ?v_77) P8)) (or (or ?v_57 ?v_154) ?v_32)) (or (or ?v_7 ?v_75) ?v_76)) (or (or ?v_77 ?v_78) ?v_18)) (or (or ?v_67 ?v_60) ?v_51)) (or (or ?v_126 ?v_78) P3)) (or (or ?v_79 ?v_59) ?v_64)) (or (or ?v_80 P18) ?v_128)) (or (or P11 ?v_81) ?v_78)) (or (or ?v_56 ?v_82) ?v_43)) (or (or ?v_29 P25) P27)) (or (or ?v_83 ?v_49) ?v_13)) (or (or ?v_84 ?v_50) ?v_85)) (or (or ?v_103 ?v_86) P20)) (or (or ?v_87 ?v_3) P17)) (or (or ?v_56 ?v_53) P9)) (or (or P16 ?v_142) ?v_99)) (or (or ?v_89 ?v_102) ?v_104)) (or (or ?v_33 ?v_34) ?v_35)) (or (or ?v_78 ?v_3) ?v_40)) (or (or ?v_16 ?v_23) ?v_15)) (or (or ?v_121 ?v_10) ?v_93)) (or (or ?v_94 P3) ?v_123)) (or (or ?v_95 ?v_41) ?v_16)) (or (or ?v_96 P11) P14)) (or (or P25 ?v_97) ?v_50)) (or (or P20 P15) ?v_72)) (or (or ?v_35 ?v_32) ?v_98)) (or (or P14 ?v_19) P26)) (or (or ?v_4 ?v_67) ?v_101)) (or (or ?v_99 P18) ?v_100)) (or (or ?v_88 ?v_76) ?v_33)) (or (or ?v_132 ?v_102) ?v_23)) (or (or ?v_103 ?v_104) ?v_9)) (or (or P2 ?v_89) ?v_105)) (or (or ?v_28 ?v_99) ?v_36)) (or (or ?v_141 ?v_72) P4)) (or (or ?v_102 ?v_83) ?v_106)) (or (or ?v_12 ?v_50) ?v_107)) (or (or P11 ?v_118) ?v_76)) (or (or ?v_57 ?v_116) ?v_63)) (or (or ?v_77 ?v_157) ?v_108)) (or (or ?v_109 ?v_110) ?v_39)) (or (or P11 P5) ?v_57)) (or (or ?v_111 ?v_112) ?v_37)) (or (or ?v_113 ?v_27) ?v_71)) (or (or ?v_74 P8) ?v_114)) (or (or ?v_115 ?v_116) ?v_46)) (or (or ?v_72 ?v_105) ?v_42)) (or (or P1 ?v_48) ?v_95)) (or (or ?v_88 P12) ?v_4)) (or (or ?v_117 P2) ?v_108)) (or (or ?v_118 ?v_109) P0)) (or (or ?v_98 ?v_27) ?v_119)) (or (or ?v_47 P15) ?v_19)) (or (or ?v_27 ?v_81) ?v_120)) (or (or ?v_36 ?v_0) ?v_121)) (or (or ?v_88 ?v_122) ?v_123)) (or (or ?v_10 ?v_124) ?v_72)) (or (or ?v_10 P5) ?v_114)) (or (or ?v_61 ?v_34) ?v_125)) (or (or ?v_126 ?v_42) ?v_95)) (or (or ?v_51 ?v_119) ?v_15)) (or (or ?v_5 ?v_30) ?v_110)) (or (or ?v_105 ?v_38) P16)) (or (or P18 ?v_52) ?v_111)) (or (or ?v_122 ?v_127) ?v_14)) (or (or ?v_15 ?v_98) ?v_49)) (or (or P3 ?v_56) ?v_112)) (or (or ?v_36 ?v_82) ?v_116)) (or (or ?v_112 P21) ?v_1)) (or (or ?v_34 ?v_127) ?v_146)) (or (or P4 P6) ?v_26)) (or (or ?v_69 P2) ?v_158)) (or (or ?v_112 ?v_12) ?v_129)) (or (or ?v_87 ?v_38) ?v_113)) (or (or ?v_93 ?v_127) ?v_24)) (or (or ?v_39 ?v_95) ?v_130)) (or (or P0 ?v_41) ?v_131)) (or (or P6 ?v_0) P8)) (or (or ?v_11 ?v_107) ?v_88)) (or (or ?v_117 ?v_87) ?v_126)) (or (or ?v_59 ?v_102) ?v_116)) (or (or ?v_123 ?v_122) P26)) (or (or ?v_17 ?v_116) ?v_132)) (or (or ?v_45 P21) ?v_87)) (or (or ?v_103 ?v_80) ?v_133)) (or (or ?v_132 ?v_114) ?v_27)) (or (or ?v_77 ?v_97) ?v_62)) (or (or ?v_134 ?v_69) P29)) (or (or ?v_101 ?v_118) ?v_12)) (or (or ?v_98 P4) ?v_122)) (or (or ?v_33 ?v_129) P0)) (or (or ?v_10 ?v_40) ?v_151)) (or (or ?v_114 ?v_17) ?v_133)) (or (or ?v_1 ?v_11) ?v_117)) (or (or P22 ?v_135) ?v_105)) (or (or ?v_1 ?v_13) P24)) (or (or ?v_106 ?v_35) ?v_117)) (or (or ?v_136 ?v_149) ?v_1)) (or (or ?v_88 ?v_37) ?v_83)) (or (or P29 P24) ?v_82)) (or (or ?v_114 ?v_137) ?v_81)) (or (or ?v_96 ?v_119) ?v_113)) (or (or ?v_3 ?v_98) ?v_64)) (or (or ?v_11 P11) ?v_102)) (or (or P4 ?v_118) P26)) (or (or ?v_23 ?v_138) ?v_150)) (or (or P12 ?v_48) ?v_26)) (or (or ?v_56 P12) ?v_108)) (or (or ?v_61 ?v_128) ?v_113)) (or (or ?v_123 ?v_67) ?v_121)) (or (or ?v_99 ?v_134) ?v_64)) (or (or ?v_84 P10) ?v_80)) (or (or ?v_110 ?v_87) ?v_12)) (or (or P23 ?v_40) P9)) (or (or ?v_81 ?v_21) ?v_135)) (or (or ?v_84 ?v_27) ?v_48)) (or (or ?v_13 P27) ?v_61)) (or (or ?v_108 ?v_94) ?v_2)) (or (or ?v_45 P13) ?v_29)) (or (or ?v_139 ?v_24) ?v_94)) (or (or ?v_143 P14) P22)) (or (or ?v_36 P28) ?v_28)) (or (or ?v_47 ?v_117) ?v_61)) (or (or ?v_71 ?v_82) ?v_62)) (or (or ?v_140 ?v_78) ?v_141)) (or (or ?v_138 ?v_39) ?v_87)) (or (or ?v_21 ?v_76) ?v_75)) (or (or ?v_64 ?v_76) P1)) (or (or ?v_102 ?v_24) ?v_115)) (or (or ?v_152 ?v_14) ?v_83)) (or (or ?v_83 ?v_53) ?v_51)) (or (or ?v_46 ?v_108) ?v_124)) (or (or ?v_37 P2) P16)) (or (or ?v_114 ?v_74) ?v_115)) (or (or ?v_45 ?v_35) ?v_41)) (or (or P15 ?v_36) ?v_142)) (or (or ?v_60 ?v_131) ?v_67)) (or (or ?v_59 ?v_129) P8)) (or (or ?v_0 ?v_78) P4)) (or (or ?v_50 P10) ?v_62)) (or (or ?v_75 P22) ?v_109)) (or (or ?v_45 ?v_88) ?v_59)) (or (or P27 ?v_61) ?v_28)) (or (or P1 ?v_40) ?v_70)) (or (or ?v_143 ?v_61) P17)) (or (or ?v_34 ?v_107) ?v_62)) (or (or ?v_133 ?v_58) ?v_7)) (or (or ?v_119 P3) P10)) (or (or ?v_79 ?v_112) P15)) (or (or P6 P24) ?v_47)) (or (or ?v_136 P17) P8)) (or (or ?v_101 ?v_72) ?v_144)) (or (or ?v_80 ?v_145) ?v_104)) (or (or ?v_65 ?v_57) ?v_68)) (or (or P6 ?v_15) P1)) (or (or P5 ?v_29) ?v_2)) (or (or ?v_50 ?v_100) ?v_133)) (or (or ?v_128 ?v_53) P20)) (or (or ?v_57 ?v_144) ?v_36)) (or (or ?v_23 ?v_146) ?v_71)) (or (or ?v_76 ?v_7) ?v_17)) (or (or ?v_94 ?v_143) ?v_96)) (or (or P10 P26) ?v_16)) (or (or P19 ?v_45) ?v_38)) (or (or ?v_135 ?v_123) P23)) (or (or ?v_26 ?v_129) ?v_61)) (or (or ?v_118 ?v_34) P9)) (or (or P27 P20) ?v_108)) (or (or ?v_29 ?v_65) ?v_93)) (or (or ?v_56 ?v_63) P26)) (or (or P17 ?v_35) ?v_96)) (or (or ?v_37 ?v_147) ?v_88)) (or (or ?v_4 ?v_37) ?v_127)) (or (or ?v_77 ?v_29) ?v_70)) (or (or ?v_81 ?v_32) ?v_141)) (or (or ?v_148 ?v_136) P24)) (or (or ?v_18 ?v_77) ?v_102)) (or (or ?v_128 P20) ?v_0)) (or (or P1 ?v_82) ?v_48)) (or (or ?v_127 P5) ?v_144)) (or (or ?v_78 ?v_57) ?v_66)) (or (or ?v_46 P18) ?v_50)) (or (or P25 ?v_118) ?v_138)) (or (or ?v_128 ?v_17) ?v_110)) (or (or ?v_121 ?v_86) P8)) (or (or ?v_13 P6) ?v_148)) (or (or ?v_142 ?v_53) ?v_105)) (or (or ?v_5 ?v_107) P9)) (or (or ?v_144 ?v_79) P25)) (or (or ?v_122 ?v_40) ?v_118)) (or (or P23 ?v_29) ?v_141)) (or (or ?v_99 P7) P9)) (or (or P22 ?v_149) ?v_41)) (or (or P22 ?v_67) ?v_22)) (or (or ?v_18 ?v_136) ?v_107)) (or (or ?v_66 ?v_9) ?v_127)) (or (or ?v_12 ?v_62) ?v_88)) (or (or ?v_135 ?v_112) ?v_10)) (or (or ?v_74 ?v_104) ?v_150)) (or (or ?v_151 ?v_117) ?v_140)) (or (or ?v_3 P13) ?v_22)) (or (or P19 ?v_142) ?v_35)) (or (or ?v_41 P9) ?v_135)) (or (or ?v_85 ?v_131) ?v_34)) (or (or ?v_105 P1) ?v_113)) (or (or ?v_40 ?v_95) ?v_100)) (or (or ?v_57 ?v_17) ?v_110)) (or (or ?v_27 ?v_95) ?v_28)) (or (or P9 P21) ?v_53)) (or (or ?v_97 ?v_87) ?v_118)) (or (or ?v_113 ?v_2) ?v_27)) (or (or ?v_7 P27) ?v_94)) (or (or ?v_136 ?v_105) ?v_129)) (or (or ?v_32 ?v_150) ?v_114)) (or (or P21 P24) ?v_9)) (or (or ?v_71 ?v_152) ?v_52)) (or (or P4 ?v_14) ?v_135)) (or (or ?v_108 ?v_123) ?v_19)) (or (or ?v_29 ?v_2) ?v_48)) (or (or ?v_57 ?v_30) ?v_89)) (or (or ?v_121 ?v_94) ?v_36)) (or (or P11 P27) ?v_121)) (or (or ?v_81 ?v_99) ?v_2)) (or (or ?v_120 P29) P5)) (or (or ?v_123 ?v_113) ?v_127)) (or (or ?v_153 ?v_63) ?v_144)) (or (or ?v_108 ?v_32) ?v_29)) (or (or ?v_125 ?v_144) P19)) (or (or ?v_12 ?v_60) ?v_121)) (or (or ?v_127 ?v_27) ?v_159)) (or (or P18 ?v_0) P10)) (or (or P3 ?v_52) ?v_123)) (or (or ?v_101 ?v_144) P0)) (or (or P25 P28) ?v_93)) (or (or P1 ?v_61) P24)) (or (or ?v_141 ?v_82) ?v_140)) (or (or ?v_74 P3) ?v_22)) (or (or ?v_5 ?v_134) ?v_69)) (or (or ?v_68 ?v_137) ?v_82)) (or (or ?v_113 ?v_65) ?v_83)) (or (or ?v_46 ?v_13) P25)) (or (or ?v_7 ?v_25) ?v_35)) (or (or ?v_99 ?v_32) ?v_3)) (or (or ?v_113 ?v_34) P8)) (or (or ?v_12 ?v_153) ?v_119)) (or (or ?v_48 ?v_57) ?v_127)) (or (or ?v_118 ?v_83) ?v_53)) (or (or ?v_107 P25) ?v_133)) (or (or P29 P4) ?v_67)) (or (or ?v_116 ?v_124) ?v_129)) (or (or ?v_111 ?v_102) ?v_4)) (or (or ?v_154 ?v_147) ?v_53)) (or (or P6 ?v_153) ?v_39)) (or (or ?v_151 P4) ?v_127)) (or (or ?v_7 P22) ?v_56)) (or (or ?v_30 ?v_56) ?v_105)) (or (or ?v_52 ?v_109) ?v_141)) (or (or P6 ?v_48) ?v_147)) (or (or ?v_113 ?v_96) P2)) (or (or P1 ?v_57) ?v_96)) (or (or ?v_12 ?v_143) ?v_48)) (or (or P3 P2) ?v_18)) (or (or ?v_106 ?v_87) ?v_98)) (or (or ?v_72 ?v_24) ?v_33)) (or (or ?v_101 P22) ?v_125)) (or (or P28 P15) ?v_155)) (or (or ?v_83 P9) ?v_15)) (or (or P12 ?v_72) ?v_144)) (or (or ?v_53 P8) ?v_37)) (or (or ?v_62 ?v_149) P13)) (or (or ?v_99 P9) ?v_83)) (or (or P8 ?v_67) ?v_102)) (or (or ?v_109 ?v_116) ?v_29)) (or (or ?v_115 P1) ?v_28)) (or (or ?v_24 P29) P9)) (or (or ?v_7 ?v_105) ?v_63)) (or (or ?v_134 ?v_10) ?v_67)) (or ?v_156 ?v_29)) (or (or ?v_24 P17) ?v_26)) (or (or ?v_123 P26) ?v_30)) (or (or P16 ?v_24) ?v_48)) (or (or ?v_67 ?v_45) ?v_56)) (or (or ?v_107 ?v_157) ?v_147)) (or (or P4 ?v_150) ?v_2)) (or (or P12 P2) ?v_0)) (or (or P27 ?v_81) P0)) (or (or ?v_24 ?v_30) ?v_137)) (or (or ?v_103 ?v_158) ?v_107)) (or (or P2 ?v_106) ?v_74)) (or (or ?v_4 ?v_127) ?v_66)) (or (or ?v_155 ?v_151) ?v_109)) (or (or ?v_116 ?v_137) ?v_73)) (or (or P16 P20) ?v_89)) (or (or ?v_140 P8) P22)) (or (or ?v_46 ?v_4) ?v_80)) (or (or ?v_63 ?v_14) ?v_122)) (or (or P9 ?v_89) ?v_87)) (or (or ?v_89 P18) ?v_16)) (or (or ?v_101 ?v_2) ?v_89)) (or (or P14 ?v_124) ?v_9)) (or (or ?v_98 ?v_87) ?v_82)) (or (or ?v_148 ?v_94) ?v_67)) (or (or ?v_101 P9) ?v_89)) (or (or ?v_0 P6) ?v_5)) (or (or ?v_101 ?v_77) ?v_36)) (or (or ?v_19 ?v_17) P25)) (or (or ?v_88 P24) ?v_36)) (or (or P7 ?v_141) P8)) (or (or ?v_123 ?v_32) ?v_53)) (or (or ?v_3 ?v_95) ?v_71)) (or (or ?v_65 P7) ?v_36)) (or (or P19 ?v_141) ?v_89)) (or (or ?v_38 ?v_122) P24)) (or (or ?v_27 ?v_152) ?v_49)) (or (or P26 ?v_147) ?v_98)) (or (or ?v_32 ?v_73) ?v_40)) (or (or ?v_141 ?v_100) P23)) (or (or ?v_49 ?v_26) ?v_23)) (or (or ?v_22 ?v_133) P17)) (or (or ?v_113 ?v_42) ?v_146)) (or (or ?v_151 ?v_68) P8)) (or (or P2 ?v_75) P25)) (or (or ?v_32 P29) ?v_123)) (or (or P24 ?v_0) ?v_80)) (or (or P25 ?v_50) ?v_56)) (or (or ?v_43 ?v_153) ?v_130)) (or (or ?v_111 ?v_53) ?v_114)) (or (or ?v_71 ?v_61) ?v_99)) (or (or P8 ?v_5) ?v_66)) (or (or ?v_147 ?v_25) P21)) (or (or ?v_95 ?v_116) ?v_78)) (or (or P1 ?v_97) ?v_45)) (or (or ?v_62 P29) ?v_26)) (or (or ?v_117 ?v_120) P21)) (or (or ?v_123 ?v_130) P5)) (or (or ?v_113 ?v_52) ?v_148)) (or (or ?v_139 ?v_149) ?v_96)) (or (or P22 ?v_106) ?v_96)) (or (or ?v_159 P21) ?v_97)) (or (or ?v_157 ?v_66) ?v_93)) (or (or P28 ?v_51) P18)) (or (or P23 ?v_143) ?v_111)) (or (or P14 P15) P29)) (or (or ?v_11 ?v_68) ?v_32)) (or (or ?v_19 P20) ?v_39)) (or (or ?v_46 ?v_38) P6)) (or (or P29 ?v_100) ?v_64)) (or (or ?v_154 ?v_13) ?v_48)) (or (or ?v_128 ?v_135) ?v_143)) (or (or ?v_143 P26) P19)) (or (or ?v_59 ?v_10) ?v_3)) (or (or ?v_151 P11) ?v_72)) (or (or ?v_140 ?v_135) ?v_74)) (or (or ?v_107 ?v_125) ?v_28)) (or (or ?v_123 ?v_2) ?v_155)) (or (or P7 ?v_40) ?v_118)) (or (or ?v_98 ?v_26) ?v_18)) (or (or ?v_58 ?v_98) ?v_154)) (or (or P3 ?v_63) ?v_14)) (or (or ?v_64 ?v_75) ?v_33)) (or (or ?v_147 ?v_51) ?v_64)) (or (or ?v_157 P7) P25)) (or (or ?v_74 ?v_59) ?v_145)) (or (or P22 ?v_132) ?v_3)) (or (or ?v_116 ?v_36) ?v_3)) (or (or ?v_62 P16) ?v_35)) (or (or ?v_126 ?v_29) ?v_67)) (or (or ?v_84 ?v_120) ?v_109)) (or (or ?v_101 ?v_86) ?v_122)) (or (or ?v_82 ?v_4) ?v_0)) (or (or ?v_154 ?v_104) P5)) (or (or P2 ?v_99) P0)))))))))))))))))))))))
(check-sat)
(exit)
